NAME : CMT13X.1541137.tour
COMMENT : Cost = 0_1541137
COMMENT : Found by LKH [Keld Helsgaun] Thu Sep 14 21:19:54 2017
TYPE : TOUR
DIMENSION : 131
TOUR_SECTION
1
68
70
71
72
75
76
73
79
78
77
74
124
29
32
37
35
34
31
28
13
9
8
127
7
6
11
10
14
15
16
12
5
4
2
3
129
99
69
80
81
57
56
58
55
53
111
128
121
106
107
108
105
104
117
101
100
102
103
130
41
44
46
49
52
51
48
43
40
39
125
109
18
17
20
23
25
26
24
21
22
110
126
89
83
112
87
86
113
85
114
84
118
82
120
123
60
66
62
63
65
67
64
61
59
54
131
88
93
90
92
91
19
119
115
98
95
94
97
96
122
27
33
36
30
50
47
45
42
38
116
-1
EOF
